NAME : in_house_7_21
TYPE : TSP
DIMENSION : 7
EDGE_WEIGHT_TYPE : EXPLICIT
EDGE_WEIGHT_FORMAT : UPPER_ROW
COMMENT : INVERSION_SHIFT=2
EDGE_WEIGHT_SECTION
1
4
12
40
38
33
42
49
15
23
13
21
11
19
36
8
9
5
44
4
27
